(set-logic HORN)
(declare-fun assign_22_5_139_abs01 (Int Int Int Int Int Int Int) Bool)
(declare-fun assert_21_5_130_abs01 (Int Int Int Int Int Int Int) Bool)
(declare-fun while_20_1_142_abs01 (Int Int Int Int Int Int Int) Bool)
(declare-fun assign_19_1_104_abs01 (Int Int Int Int Int Int Int) Bool)
(declare-fun assign_16_5_95_abs01 (Int Int Int Int Int Int Int) Bool)
(declare-fun assign_15_5_86_abs01 (Int Int Int Int Int Int Int) Bool)
(declare-fun arrayassign_14_5_77_abs01 (Int Int Int Int Int Int Int) Bool)
(declare-fun while_13_1_98_abs01 (Int Int Int Int Int Int Int) Bool)
(declare-fun assign_11_1_55_abs01 (Int Int Int Int Int Int Int) Bool)
(declare-fun assign_10_1_43_abs01 (Int Int Int Int Int Int Int) Bool)
(declare-fun assign_9_1_37_abs01 (Int Int Int Int Int Int Int) Bool)
(declare-fun end_abs01 (Int Int Int Int Int Int Int) Bool)
(declare-fun start_abs01 (Int Int Int Int Int Int Int) Bool)
(assert (forall ((a_copy (Array Int Int)) (a (Array Int Int)) (size Int) (j Int) (i Int) (vabs_f_f Int) (vabs_s_f_f Int)) (start_abs01 vabs_f_f (select a_copy vabs_f_f) vabs_s_f_f (select a vabs_s_f_f) size j i)))
(assert (forall ((i Int) (j Int) (size Int) (a (Array Int Int)) (a_copy (Array Int Int)) (vabs_0_f_f Int) (vabs_0_s_f_f Int)) (=> (start_abs01 vabs_0_f_f (select a_copy vabs_0_f_f) vabs_0_s_f_f (select a vabs_0_s_f_f) size j i) (assign_9_1_37_abs01 vabs_0_f_f (select a_copy vabs_0_f_f) vabs_0_s_f_f (select a vabs_0_s_f_f) size j i))))
(assert (forall ((i Int) (j Int) (size Int) (a (Array Int Int)) (a_copy (Array Int Int)) (vabs_0_f_f Int) (vabs_0_s_f_f Int)) (=> (assign_9_1_37_abs01 vabs_0_f_f (select a_copy vabs_0_f_f) vabs_0_s_f_f (select a vabs_0_s_f_f) size j i) (assign_10_1_43_abs01 vabs_0_f_f (select a_copy vabs_0_f_f) vabs_0_s_f_f (select a vabs_0_s_f_f) size j 1))))
(assert (forall ((i Int) (j Int) (size Int) (a (Array Int Int)) (a_copy (Array Int Int)) (vabs_0_f_f Int) (vabs_0_s_f_f Int)) (=> (assign_10_1_43_abs01 vabs_0_f_f (select a_copy vabs_0_f_f) vabs_0_s_f_f (select a vabs_0_s_f_f) size j i) (assign_11_1_55_abs01 vabs_0_f_f (select a_copy vabs_0_f_f) vabs_0_s_f_f (select a vabs_0_s_f_f) size 0 i))))
(assert (forall ((rnd Int) (i Int) (j Int) (size Int) (a (Array Int Int)) (a_copy (Array Int Int)) (vabs_0_f_f Int) (vabs_0_s_f_f Int)) (=> (assign_11_1_55_abs01 vabs_0_f_f (select a_copy vabs_0_f_f) vabs_0_s_f_f (select a vabs_0_s_f_f) size j i) (while_13_1_98_abs01 vabs_0_f_f (select a_copy vabs_0_f_f) vabs_0_s_f_f (select a vabs_0_s_f_f) rnd j i))))
(assert (forall ((a_copy (Array Int Int)) (a (Array Int Int)) (size Int) (j Int) (i Int) (vabs_0_f_f Int) (vabs_0_s_f_f Int)) (=> (and (while_13_1_98_abs01 vabs_0_f_f (select a_copy vabs_0_f_f) vabs_0_s_f_f (select a vabs_0_s_f_f) size j i) (< i size)) (arrayassign_14_5_77_abs01 vabs_0_f_f (select a_copy vabs_0_f_f) vabs_0_s_f_f (select a vabs_0_s_f_f) size j i))))
(assert (forall ((a_copy (Array Int Int)) (a (Array Int Int)) (size Int) (j Int) (i Int) (vabs_0_f_f Int) (vabs_0_s_f_f Int)) (=> (and (while_13_1_98_abs01 vabs_0_f_f (select a_copy vabs_0_f_f) vabs_0_s_f_f (select a vabs_0_s_f_f) size j i) (not (< i size))) (assign_19_1_104_abs01 vabs_0_f_f (select a_copy vabs_0_f_f) vabs_0_s_f_f (select a vabs_0_s_f_f) size j i))))
(assert (forall ((i Int) (j Int) (size Int) (a (Array Int Int)) (a_copy (Array Int Int)) (vabs_0_f_f Int) (vabs_0_s_f_f Int)) (=> (and (arrayassign_14_5_77_abs01 vabs_0_f_f (select a_copy vabs_0_f_f) vabs_0_s_f_f (select a vabs_0_s_f_f) size j i) (arrayassign_14_5_77_abs01 vabs_0_f_f (select a_copy vabs_0_f_f) i (select a i) size j i)) (assign_15_5_86_abs01 vabs_0_f_f (select (store a_copy i (select a i)) vabs_0_f_f) vabs_0_s_f_f (select a vabs_0_s_f_f) size j i))))
(assert (forall ((i Int) (j Int) (size Int) (a (Array Int Int)) (a_copy (Array Int Int)) (vabs_0_f_f Int) (vabs_0_s_f_f Int)) (=> (assign_15_5_86_abs01 vabs_0_f_f (select a_copy vabs_0_f_f) vabs_0_s_f_f (select a vabs_0_s_f_f) size j i) (assign_16_5_95_abs01 vabs_0_f_f (select a_copy vabs_0_f_f) vabs_0_s_f_f (select a vabs_0_s_f_f) size j (+ i 2)))))
(assert (forall ((i Int) (j Int) (size Int) (a (Array Int Int)) (a_copy (Array Int Int)) (vabs_0_f_f Int) (vabs_0_s_f_f Int)) (=> (assign_16_5_95_abs01 vabs_0_f_f (select a_copy vabs_0_f_f) vabs_0_s_f_f (select a vabs_0_s_f_f) size j i) (while_13_1_98_abs01 vabs_0_f_f (select a_copy vabs_0_f_f) vabs_0_s_f_f (select a vabs_0_s_f_f) size (+ j 1) i))))
(assert (forall ((i Int) (j Int) (size Int) (a (Array Int Int)) (a_copy (Array Int Int)) (vabs_0_f_f Int) (vabs_0_s_f_f Int)) (=> (assign_19_1_104_abs01 vabs_0_f_f (select a_copy vabs_0_f_f) vabs_0_s_f_f (select a vabs_0_s_f_f) size j i) (while_20_1_142_abs01 vabs_0_f_f (select a_copy vabs_0_f_f) vabs_0_s_f_f (select a vabs_0_s_f_f) size j 0))))
(assert (forall ((a_copy (Array Int Int)) (a (Array Int Int)) (size Int) (j Int) (i Int) (vabs_0_f_f Int) (vabs_0_s_f_f Int)) (=> (and (while_20_1_142_abs01 vabs_0_f_f (select a_copy vabs_0_f_f) vabs_0_s_f_f (select a vabs_0_s_f_f) size j i) (< i size)) (assert_21_5_130_abs01 vabs_0_f_f (select a_copy vabs_0_f_f) vabs_0_s_f_f (select a vabs_0_s_f_f) size j i))))
(assert (forall ((a_copy (Array Int Int)) (a (Array Int Int)) (size Int) (j Int) (i Int) (vabs_0_f_f Int) (vabs_0_s_f_f Int)) (=> (and (while_20_1_142_abs01 vabs_0_f_f (select a_copy vabs_0_f_f) vabs_0_s_f_f (select a vabs_0_s_f_f) size j i) (not (< i size))) (end_abs01 vabs_0_f_f (select a_copy vabs_0_f_f) vabs_0_s_f_f (select a vabs_0_s_f_f) size j i))))
(assert (forall ((i Int) (j Int) (size Int) (a (Array Int Int)) (a_copy (Array Int Int))) (=> (assert_21_5_130_abs01 i (select a_copy i) j (select a j) size j i) (= (select a_copy i) (select a j)))))
(assert (forall ((i Int) (j Int) (size Int) (a (Array Int Int)) (a_copy (Array Int Int)) (vabs_0_f_f Int) (vabs_0_s_f_f Int)) (=> (assert_21_5_130_abs01 vabs_0_f_f (select a_copy vabs_0_f_f) vabs_0_s_f_f (select a vabs_0_s_f_f) size j i) (assign_22_5_139_abs01 vabs_0_f_f (select a_copy vabs_0_f_f) vabs_0_s_f_f (select a vabs_0_s_f_f) size j i))))
(assert (forall ((i Int) (j Int) (size Int) (a (Array Int Int)) (a_copy (Array Int Int)) (vabs_0_f_f Int) (vabs_0_s_f_f Int)) (=> (assign_22_5_139_abs01 vabs_0_f_f (select a_copy vabs_0_f_f) vabs_0_s_f_f (select a vabs_0_s_f_f) size j i) (while_20_1_142_abs01 vabs_0_f_f (select a_copy vabs_0_f_f) vabs_0_s_f_f (select a vabs_0_s_f_f) size j (+ i 1)))))
(check-sat)